n = 15
Q1 = [0 47 35 7 12 19 13 49 0 36 12 27 8 20 48; 0 0 5 24 0 18 0 20 0 31 50 29 21 45 27; 0 0 0 19 24 25 17 40 38 14 16 45 48 24 0; 0 0 0 0 39 29 0 36 0 47 0 6 0 26 10; 0 0 0 0 0 18 41 0 32 40 38 15 5 5 47; 0 0 0 0 0 0 0 24 35 47 14 39 33 14 0; 0 0 0 0 0 0 0 0 41 8 44 24 14 0 0; 0 0 0 0 0 0 0 0 21 0 24 37 0 21 34; 0 0 0 0 0 0 0 0 0 49 0 36 0 29 49; 0 0 0 0 0 0 0 0 0 0 0 45 48 42 41; 0 0 0 0 0 0 0 0 0 0 0 14 46 0 6; 0 0 0 0 0 0 0 0 0 0 0 0 0 16 0; 0 0 0 0 0 0 0 0 0 0 0 0 0 7 12; 0 0 0 0 0 0 0 0 0 0 0 0 0 0 37; 0 0 0 0 0 0 0 0 0 0 0 0 0 0 0]
Q2 = [0.0 3.0 7.0 49.0 41.0 46.0 43.0 0.0 0.0 13.0 45.0 5.0 45.0 38.0 1.0; 0.0 0.0 50.0 36.0 0.0 35.0 0.0 47.0 0.0 9.0 0.0 16.0 40.0 0.0 8.0; 0.0 0.0 0.0 44.0 43.0 23.0 38.0 10.0 1.0 44.0 47.0 3.0 0.0 29.0 0.0; 0.0 0.0 0.0 0.0 5.0 17.0 0.0 8.0 0.0 0.0 0.0 49.0 0.0 11.0 43.0; 0.0 0.0 0.0 0.0 0.0 42.0 5.0 0.0 8.0 8.0 1.0 50.0 49.0 49.0 2.0; 0.0 0.0 0.0 0.0 0.0 0.0 0.0 27.0 0.0 0.0 48.0 2.0 1.0 42.0 0.0; 0.0 0.0 0.0 0.0 0.0 0.0 0.0 0.0 3.0 47.0 0.0 27.0 40.0 0.0 0.0; 0.0 0.0 0.0 0.0 0.0 0.0 0.0 0.0 37.0 0.0 35.0 1.0 0.0 32.0 8.0; 0.0 0.0 0.0 0.0 0.0 0.0 0.0 0.0 0.0 1.0 0.0 9.0 0.0 9.0 1.0; 0.0 0.0 0.0 0.0 0.0 0.0 0.0 0.0 0.0 0.0 0.0 3.0 2.0 1.0 8.0; 0.0 0.0 0.0 0.0 0.0 0.0 0.0 0.0 0.0 0.0 0.0 41.0 1.0 0.0 44.0; 0.0 0.0 0.0 0.0 0.0 0.0 0.0 0.0 0.0 0.0 0.0 0.0 0.0 50.0 0.0; 0.0 0.0 0.0 0.0 0.0 0.0 0.0 0.0 0.0 0.0 0.0 0.0 0.0 50.0 45.0; 0.0 0.0 0.0 0.0 0.0 0.0 0.0 0.0 0.0 0.0 0.0 0.0 0.0 0.0 4.0; 0.0 0.0 0.0 0.0 0.0 0.0 0.0 0.0 0.0 0.0 0.0 0.0 0.0 0.0 0.0]
Q3 = [0 1 12 6 13 0 11 10 67 18 9 38 5 0 6; 0 0 5 5 67 3 67 0 67 7 16 0 2 19 10; 0 0 0 1 0 6 11 6 27 1 0 1 3 2 67; 0 0 0 0 10 6 67 6 67 15 67 9 67 2 4; 0 0 0 0 0 6 19 67 10 2 26 0 13 5 14; 0 0 0 0 0 0 67 16 6 15 1 22 22 3 67; 0 0 0 0 0 0 0 67 4 10 15 15 12 67 67; 0 0 0 0 0 0 0 0 1 67 7 1 67 11 2; 0 0 0 0 0 0 0 0 0 14 67 12 67 3 9; 0 0 0 0 0 0 0 0 0 0 67 15 2 19 15; 0 0 0 0 0 0 0 0 0 0 0 10 9 67 10; 0 0 0 0 0 0 0 0 0 0 0 0 67 0 67; 0 0 0 0 0 0 0 0 0 0 0 0 0 10 8; 0 0 0 0 0 0 0 0 0 0 0 0 0 0 24; 0 0 0 0 0 0 0 0 0 0 0 0 0 0 0]
